(set-info :smt-lib-version 2.6)
(set-logic QF_LIA)
(set-info :source |
Generated by: Nicolas Amat, Bernard Berthomieu, Silvano Dal Zilio, Didier Le Botlan
Generated on: 2022-03-07
Generator: SMPT
Application: Reachability query on the instance CircularTrains-PT-192 from the Model Checking Contest 2021 using the SMPT model-checker
Target solver: z3
Publications: https://doi.org/10.1007/978-3-030-76983-3_9, http://mcc.lip6.fr/2021/results.php
|)
(set-info :license "https://creativecommons.org/licenses/by/4.0/")
(set-info :category "industrial")
(set-info :status sat)

(declare-const F101 Int)
(assert (>= F101 0))
(declare-const Section_100 Int)
(assert (>= Section_100 0))
(declare-const F99 Int)
(assert (>= F99 0))
(declare-const Section_101 Int)
(assert (>= Section_101 0))
(declare-const F102 Int)
(assert (>= F102 0))
(declare-const F100 Int)
(assert (>= F100 0))
(declare-const Section_102 Int)
(assert (>= Section_102 0))
(declare-const F103 Int)
(assert (>= F103 0))
(declare-const Section_103 Int)
(assert (>= Section_103 0))
(declare-const F104 Int)
(assert (>= F104 0))
(declare-const Section_104 Int)
(assert (>= Section_104 0))
(declare-const F105 Int)
(assert (>= F105 0))
(declare-const Section_105 Int)
(assert (>= Section_105 0))
(declare-const F106 Int)
(assert (>= F106 0))
(declare-const Section_106 Int)
(assert (>= Section_106 0))
(declare-const F107 Int)
(assert (>= F107 0))
(declare-const Section_107 Int)
(assert (>= Section_107 0))
(declare-const F108 Int)
(assert (>= F108 0))
(declare-const Section_108 Int)
(assert (>= Section_108 0))
(declare-const F109 Int)
(assert (>= F109 0))
(declare-const Section_109 Int)
(assert (>= Section_109 0))
(declare-const F110 Int)
(assert (>= F110 0))
(declare-const Section_110 Int)
(assert (>= Section_110 0))
(declare-const F11 Int)
(assert (>= F11 0))
(declare-const Section_10 Int)
(assert (>= Section_10 0))
(declare-const F9 Int)
(assert (>= F9 0))
(declare-const Section_11 Int)
(assert (>= Section_11 0))
(declare-const F111 Int)
(assert (>= F111 0))
(declare-const Section_111 Int)
(assert (>= Section_111 0))
(declare-const F112 Int)
(assert (>= F112 0))
(declare-const Section_112 Int)
(assert (>= Section_112 0))
(declare-const F113 Int)
(assert (>= F113 0))
(declare-const Section_113 Int)
(assert (>= Section_113 0))
(declare-const F114 Int)
(assert (>= F114 0))
(declare-const Section_114 Int)
(assert (>= Section_114 0))
(declare-const F115 Int)
(assert (>= F115 0))
(declare-const Section_115 Int)
(assert (>= Section_115 0))
(declare-const F116 Int)
(assert (>= F116 0))
(declare-const Section_116 Int)
(assert (>= Section_116 0))
(declare-const F117 Int)
(assert (>= F117 0))
(declare-const Section_117 Int)
(assert (>= Section_117 0))
(declare-const F118 Int)
(assert (>= F118 0))
(declare-const Section_118 Int)
(assert (>= Section_118 0))
(declare-const F119 Int)
(assert (>= F119 0))
(declare-const Section_119 Int)
(assert (>= Section_119 0))
(declare-const F120 Int)
(assert (>= F120 0))
(declare-const Section_120 Int)
(assert (>= Section_120 0))
(declare-const F12 Int)
(assert (>= F12 0))
(declare-const F10 Int)
(assert (>= F10 0))
(declare-const Section_12 Int)
(assert (>= Section_12 0))
(declare-const F121 Int)
(assert (>= F121 0))
(declare-const Section_121 Int)
(assert (>= Section_121 0))
(declare-const F122 Int)
(assert (>= F122 0))
(declare-const Section_122 Int)
(assert (>= Section_122 0))
(declare-const F123 Int)
(assert (>= F123 0))
(declare-const Section_123 Int)
(assert (>= Section_123 0))
(declare-const F124 Int)
(assert (>= F124 0))
(declare-const Section_124 Int)
(assert (>= Section_124 0))
(declare-const F125 Int)
(assert (>= F125 0))
(declare-const Section_125 Int)
(assert (>= Section_125 0))
(declare-const F126 Int)
(assert (>= F126 0))
(declare-const Section_126 Int)
(assert (>= Section_126 0))
(declare-const F127 Int)
(assert (>= F127 0))
(declare-const Section_127 Int)
(assert (>= Section_127 0))
(declare-const F128 Int)
(assert (>= F128 0))
(declare-const Section_128 Int)
(assert (>= Section_128 0))
(declare-const F129 Int)
(assert (>= F129 0))
(declare-const Section_129 Int)
(assert (>= Section_129 0))
(declare-const F130 Int)
(assert (>= F130 0))
(declare-const Section_130 Int)
(assert (>= Section_130 0))
(declare-const F13 Int)
(assert (>= F13 0))
(declare-const Section_13 Int)
(assert (>= Section_13 0))
(declare-const F131 Int)
(assert (>= F131 0))
(declare-const Section_131 Int)
(assert (>= Section_131 0))
(declare-const F132 Int)
(assert (>= F132 0))
(declare-const Section_132 Int)
(assert (>= Section_132 0))
(declare-const F133 Int)
(assert (>= F133 0))
(declare-const Section_133 Int)
(assert (>= Section_133 0))
(declare-const F134 Int)
(assert (>= F134 0))
(declare-const Section_134 Int)
(assert (>= Section_134 0))
(declare-const F135 Int)
(assert (>= F135 0))
(declare-const Section_135 Int)
(assert (>= Section_135 0))
(declare-const F136 Int)
(assert (>= F136 0))
(declare-const Section_136 Int)
(assert (>= Section_136 0))
(declare-const F137 Int)
(assert (>= F137 0))
(declare-const Section_137 Int)
(assert (>= Section_137 0))
(declare-const F138 Int)
(assert (>= F138 0))
(declare-const Section_138 Int)
(assert (>= Section_138 0))
(declare-const F139 Int)
(assert (>= F139 0))
(declare-const Section_139 Int)
(assert (>= Section_139 0))
(declare-const F140 Int)
(assert (>= F140 0))
(declare-const Section_140 Int)
(assert (>= Section_140 0))
(declare-const F14 Int)
(assert (>= F14 0))
(declare-const Section_14 Int)
(assert (>= Section_14 0))
(declare-const F141 Int)
(assert (>= F141 0))
(declare-const Section_141 Int)
(assert (>= Section_141 0))
(declare-const F142 Int)
(assert (>= F142 0))
(declare-const Section_142 Int)
(assert (>= Section_142 0))
(declare-const F143 Int)
(assert (>= F143 0))
(declare-const Section_143 Int)
(assert (>= Section_143 0))
(declare-const F144 Int)
(assert (>= F144 0))
(declare-const Section_144 Int)
(assert (>= Section_144 0))
(declare-const F145 Int)
(assert (>= F145 0))
(declare-const Section_145 Int)
(assert (>= Section_145 0))
(declare-const F146 Int)
(assert (>= F146 0))
(declare-const Section_146 Int)
(assert (>= Section_146 0))
(declare-const F147 Int)
(assert (>= F147 0))
(declare-const Section_147 Int)
(assert (>= Section_147 0))
(declare-const F148 Int)
(assert (>= F148 0))
(declare-const Section_148 Int)
(assert (>= Section_148 0))
(declare-const F149 Int)
(assert (>= F149 0))
(declare-const Section_149 Int)
(assert (>= Section_149 0))
(declare-const F150 Int)
(assert (>= F150 0))
(declare-const Section_150 Int)
(assert (>= Section_150 0))
(declare-const F15 Int)
(assert (>= F15 0))
(declare-const Section_15 Int)
(assert (>= Section_15 0))
(declare-const F151 Int)
(assert (>= F151 0))
(declare-const Section_151 Int)
(assert (>= Section_151 0))
(declare-const F152 Int)
(assert (>= F152 0))
(declare-const Section_152 Int)
(assert (>= Section_152 0))
(declare-const F153 Int)
(assert (>= F153 0))
(declare-const Section_153 Int)
(assert (>= Section_153 0))
(declare-const F154 Int)
(assert (>= F154 0))
(declare-const Section_154 Int)
(assert (>= Section_154 0))
(declare-const F155 Int)
(assert (>= F155 0))
(declare-const Section_155 Int)
(assert (>= Section_155 0))
(declare-const F156 Int)
(assert (>= F156 0))
(declare-const Section_156 Int)
(assert (>= Section_156 0))
(declare-const F157 Int)
(assert (>= F157 0))
(declare-const Section_157 Int)
(assert (>= Section_157 0))
(declare-const F158 Int)
(assert (>= F158 0))
(declare-const Section_158 Int)
(assert (>= Section_158 0))
(declare-const F159 Int)
(assert (>= F159 0))
(declare-const Section_159 Int)
(assert (>= Section_159 0))
(declare-const F160 Int)
(assert (>= F160 0))
(declare-const Section_160 Int)
(assert (>= Section_160 0))
(declare-const F16 Int)
(assert (>= F16 0))
(declare-const Section_16 Int)
(assert (>= Section_16 0))
(declare-const F161 Int)
(assert (>= F161 0))
(declare-const Section_161 Int)
(assert (>= Section_161 0))
(declare-const F162 Int)
(assert (>= F162 0))
(declare-const Section_162 Int)
(assert (>= Section_162 0))
(declare-const F163 Int)
(assert (>= F163 0))
(declare-const Section_163 Int)
(assert (>= Section_163 0))
(declare-const F164 Int)
(assert (>= F164 0))
(declare-const Section_164 Int)
(assert (>= Section_164 0))
(declare-const F165 Int)
(assert (>= F165 0))
(declare-const Section_165 Int)
(assert (>= Section_165 0))
(declare-const F166 Int)
(assert (>= F166 0))
(declare-const Section_166 Int)
(assert (>= Section_166 0))
(declare-const F167 Int)
(assert (>= F167 0))
(declare-const Section_167 Int)
(assert (>= Section_167 0))
(declare-const F168 Int)
(assert (>= F168 0))
(declare-const Section_168 Int)
(assert (>= Section_168 0))
(declare-const F169 Int)
(assert (>= F169 0))
(declare-const Section_169 Int)
(assert (>= Section_169 0))
(declare-const F170 Int)
(assert (>= F170 0))
(declare-const Section_170 Int)
(assert (>= Section_170 0))
(declare-const F17 Int)
(assert (>= F17 0))
(declare-const Section_17 Int)
(assert (>= Section_17 0))
(declare-const F171 Int)
(assert (>= F171 0))
(declare-const Section_171 Int)
(assert (>= Section_171 0))
(declare-const F172 Int)
(assert (>= F172 0))
(declare-const Section_172 Int)
(assert (>= Section_172 0))
(declare-const F173 Int)
(assert (>= F173 0))
(declare-const Section_173 Int)
(assert (>= Section_173 0))
(declare-const F174 Int)
(assert (>= F174 0))
(declare-const Section_174 Int)
(assert (>= Section_174 0))
(declare-const F175 Int)
(assert (>= F175 0))
(declare-const Section_175 Int)
(assert (>= Section_175 0))
(declare-const F176 Int)
(assert (>= F176 0))
(declare-const Section_176 Int)
(assert (>= Section_176 0))
(declare-const F177 Int)
(assert (>= F177 0))
(declare-const Section_177 Int)
(assert (>= Section_177 0))
(declare-const F178 Int)
(assert (>= F178 0))
(declare-const Section_178 Int)
(assert (>= Section_178 0))
(declare-const F179 Int)
(assert (>= F179 0))
(declare-const Section_179 Int)
(assert (>= Section_179 0))
(declare-const F180 Int)
(assert (>= F180 0))
(declare-const Section_180 Int)
(assert (>= Section_180 0))
(declare-const F18 Int)
(assert (>= F18 0))
(declare-const Section_18 Int)
(assert (>= Section_18 0))
(declare-const F181 Int)
(assert (>= F181 0))
(declare-const Section_181 Int)
(assert (>= Section_181 0))
(declare-const F182 Int)
(assert (>= F182 0))
(declare-const Section_182 Int)
(assert (>= Section_182 0))
(declare-const F183 Int)
(assert (>= F183 0))
(declare-const Section_183 Int)
(assert (>= Section_183 0))
(declare-const F184 Int)
(assert (>= F184 0))
(declare-const Section_184 Int)
(assert (>= Section_184 0))
(declare-const F185 Int)
(assert (>= F185 0))
(declare-const Section_185 Int)
(assert (>= Section_185 0))
(declare-const F186 Int)
(assert (>= F186 0))
(declare-const Section_186 Int)
(assert (>= Section_186 0))
(declare-const F187 Int)
(assert (>= F187 0))
(declare-const Section_187 Int)
(assert (>= Section_187 0))
(declare-const F188 Int)
(assert (>= F188 0))
(declare-const Section_188 Int)
(assert (>= Section_188 0))
(declare-const F189 Int)
(assert (>= F189 0))
(declare-const Section_189 Int)
(assert (>= Section_189 0))
(declare-const F190 Int)
(assert (>= F190 0))
(declare-const Section_190 Int)
(assert (>= Section_190 0))
(declare-const F19 Int)
(assert (>= F19 0))
(declare-const Section_19 Int)
(assert (>= Section_19 0))
(declare-const F191 Int)
(assert (>= F191 0))
(declare-const Section_191 Int)
(assert (>= Section_191 0))
(declare-const F192 Int)
(assert (>= F192 0))
(declare-const Section_192 Int)
(assert (>= Section_192 0))
(declare-const F1 Int)
(assert (>= F1 0))
(declare-const Section_1 Int)
(assert (>= Section_1 0))
(declare-const F20 Int)
(assert (>= F20 0))
(declare-const Section_20 Int)
(assert (>= Section_20 0))
(declare-const F2 Int)
(assert (>= F2 0))
(declare-const Section_2 Int)
(assert (>= Section_2 0))
(declare-const F21 Int)
(assert (>= F21 0))
(declare-const Section_21 Int)
(assert (>= Section_21 0))
(declare-const F22 Int)
(assert (>= F22 0))
(declare-const Section_22 Int)
(assert (>= Section_22 0))
(declare-const F23 Int)
(assert (>= F23 0))
(declare-const Section_23 Int)
(assert (>= Section_23 0))
(declare-const F24 Int)
(assert (>= F24 0))
(declare-const Section_24 Int)
(assert (>= Section_24 0))
(declare-const F25 Int)
(assert (>= F25 0))
(declare-const Section_25 Int)
(assert (>= Section_25 0))
(declare-const F26 Int)
(assert (>= F26 0))
(declare-const Section_26 Int)
(assert (>= Section_26 0))
(declare-const F27 Int)
(assert (>= F27 0))
(declare-const Section_27 Int)
(assert (>= Section_27 0))
(declare-const F28 Int)
(assert (>= F28 0))
(declare-const Section_28 Int)
(assert (>= Section_28 0))
(declare-const F29 Int)
(assert (>= F29 0))
(declare-const Section_29 Int)
(assert (>= Section_29 0))
(declare-const F30 Int)
(assert (>= F30 0))
(declare-const Section_30 Int)
(assert (>= Section_30 0))
(declare-const F3 Int)
(assert (>= F3 0))
(declare-const Section_3 Int)
(assert (>= Section_3 0))
(declare-const F31 Int)
(assert (>= F31 0))
(declare-const Section_31 Int)
(assert (>= Section_31 0))
(declare-const F32 Int)
(assert (>= F32 0))
(declare-const Section_32 Int)
(assert (>= Section_32 0))
(declare-const F33 Int)
(assert (>= F33 0))
(declare-const Section_33 Int)
(assert (>= Section_33 0))
(declare-const F34 Int)
(assert (>= F34 0))
(declare-const Section_34 Int)
(assert (>= Section_34 0))
(declare-const F35 Int)
(assert (>= F35 0))
(declare-const Section_35 Int)
(assert (>= Section_35 0))
(declare-const F36 Int)
(assert (>= F36 0))
(declare-const Section_36 Int)
(assert (>= Section_36 0))
(declare-const F37 Int)
(assert (>= F37 0))
(declare-const Section_37 Int)
(assert (>= Section_37 0))
(declare-const F38 Int)
(assert (>= F38 0))
(declare-const Section_38 Int)
(assert (>= Section_38 0))
(declare-const F39 Int)
(assert (>= F39 0))
(declare-const Section_39 Int)
(assert (>= Section_39 0))
(declare-const F40 Int)
(assert (>= F40 0))
(declare-const Section_40 Int)
(assert (>= Section_40 0))
(declare-const F4 Int)
(assert (>= F4 0))
(declare-const Section_4 Int)
(assert (>= Section_4 0))
(declare-const F41 Int)
(assert (>= F41 0))
(declare-const Section_41 Int)
(assert (>= Section_41 0))
(declare-const F42 Int)
(assert (>= F42 0))
(declare-const Section_42 Int)
(assert (>= Section_42 0))
(declare-const F43 Int)
(assert (>= F43 0))
(declare-const Section_43 Int)
(assert (>= Section_43 0))
(declare-const F44 Int)
(assert (>= F44 0))
(declare-const Section_44 Int)
(assert (>= Section_44 0))
(declare-const F45 Int)
(assert (>= F45 0))
(declare-const Section_45 Int)
(assert (>= Section_45 0))
(declare-const F46 Int)
(assert (>= F46 0))
(declare-const Section_46 Int)
(assert (>= Section_46 0))
(declare-const F47 Int)
(assert (>= F47 0))
(declare-const Section_47 Int)
(assert (>= Section_47 0))
(declare-const F48 Int)
(assert (>= F48 0))
(declare-const Section_48 Int)
(assert (>= Section_48 0))
(declare-const F49 Int)
(assert (>= F49 0))
(declare-const Section_49 Int)
(assert (>= Section_49 0))
(declare-const F50 Int)
(assert (>= F50 0))
(declare-const Section_50 Int)
(assert (>= Section_50 0))
(declare-const F5 Int)
(assert (>= F5 0))
(declare-const Section_5 Int)
(assert (>= Section_5 0))
(declare-const F51 Int)
(assert (>= F51 0))
(declare-const Section_51 Int)
(assert (>= Section_51 0))
(declare-const F52 Int)
(assert (>= F52 0))
(declare-const Section_52 Int)
(assert (>= Section_52 0))
(declare-const F53 Int)
(assert (>= F53 0))
(declare-const Section_53 Int)
(assert (>= Section_53 0))
(declare-const F54 Int)
(assert (>= F54 0))
(declare-const Section_54 Int)
(assert (>= Section_54 0))
(declare-const F55 Int)
(assert (>= F55 0))
(declare-const Section_55 Int)
(assert (>= Section_55 0))
(declare-const F56 Int)
(assert (>= F56 0))
(declare-const Section_56 Int)
(assert (>= Section_56 0))
(declare-const F57 Int)
(assert (>= F57 0))
(declare-const Section_57 Int)
(assert (>= Section_57 0))
(declare-const F58 Int)
(assert (>= F58 0))
(declare-const Section_58 Int)
(assert (>= Section_58 0))
(declare-const F59 Int)
(assert (>= F59 0))
(declare-const Section_59 Int)
(assert (>= Section_59 0))
(declare-const F60 Int)
(assert (>= F60 0))
(declare-const Section_60 Int)
(assert (>= Section_60 0))
(declare-const F6 Int)
(assert (>= F6 0))
(declare-const Section_6 Int)
(assert (>= Section_6 0))
(declare-const F61 Int)
(assert (>= F61 0))
(declare-const Section_61 Int)
(assert (>= Section_61 0))
(declare-const F62 Int)
(assert (>= F62 0))
(declare-const Section_62 Int)
(assert (>= Section_62 0))
(declare-const F63 Int)
(assert (>= F63 0))
(declare-const Section_63 Int)
(assert (>= Section_63 0))
(declare-const F64 Int)
(assert (>= F64 0))
(declare-const Section_64 Int)
(assert (>= Section_64 0))
(declare-const F65 Int)
(assert (>= F65 0))
(declare-const Section_65 Int)
(assert (>= Section_65 0))
(declare-const F66 Int)
(assert (>= F66 0))
(declare-const Section_66 Int)
(assert (>= Section_66 0))
(declare-const F67 Int)
(assert (>= F67 0))
(declare-const Section_67 Int)
(assert (>= Section_67 0))
(declare-const F68 Int)
(assert (>= F68 0))
(declare-const Section_68 Int)
(assert (>= Section_68 0))
(declare-const F69 Int)
(assert (>= F69 0))
(declare-const Section_69 Int)
(assert (>= Section_69 0))
(declare-const F70 Int)
(assert (>= F70 0))
(declare-const Section_70 Int)
(assert (>= Section_70 0))
(declare-const F7 Int)
(assert (>= F7 0))
(declare-const Section_7 Int)
(assert (>= Section_7 0))
(declare-const F71 Int)
(assert (>= F71 0))
(declare-const Section_71 Int)
(assert (>= Section_71 0))
(declare-const F72 Int)
(assert (>= F72 0))
(declare-const Section_72 Int)
(assert (>= Section_72 0))
(declare-const F73 Int)
(assert (>= F73 0))
(declare-const Section_73 Int)
(assert (>= Section_73 0))
(declare-const F74 Int)
(assert (>= F74 0))
(declare-const Section_74 Int)
(assert (>= Section_74 0))
(declare-const F75 Int)
(assert (>= F75 0))
(declare-const Section_75 Int)
(assert (>= Section_75 0))
(declare-const F76 Int)
(assert (>= F76 0))
(declare-const Section_76 Int)
(assert (>= Section_76 0))
(declare-const F77 Int)
(assert (>= F77 0))
(declare-const Section_77 Int)
(assert (>= Section_77 0))
(declare-const F78 Int)
(assert (>= F78 0))
(declare-const Section_78 Int)
(assert (>= Section_78 0))
(declare-const F79 Int)
(assert (>= F79 0))
(declare-const Section_79 Int)
(assert (>= Section_79 0))
(declare-const F80 Int)
(assert (>= F80 0))
(declare-const Section_80 Int)
(assert (>= Section_80 0))
(declare-const F8 Int)
(assert (>= F8 0))
(declare-const Section_8 Int)
(assert (>= Section_8 0))
(declare-const F81 Int)
(assert (>= F81 0))
(declare-const Section_81 Int)
(assert (>= Section_81 0))
(declare-const F82 Int)
(assert (>= F82 0))
(declare-const Section_82 Int)
(assert (>= Section_82 0))
(declare-const F83 Int)
(assert (>= F83 0))
(declare-const Section_83 Int)
(assert (>= Section_83 0))
(declare-const F84 Int)
(assert (>= F84 0))
(declare-const Section_84 Int)
(assert (>= Section_84 0))
(declare-const F85 Int)
(assert (>= F85 0))
(declare-const Section_85 Int)
(assert (>= Section_85 0))
(declare-const F86 Int)
(assert (>= F86 0))
(declare-const Section_86 Int)
(assert (>= Section_86 0))
(declare-const F87 Int)
(assert (>= F87 0))
(declare-const Section_87 Int)
(assert (>= Section_87 0))
(declare-const F88 Int)
(assert (>= F88 0))
(declare-const Section_88 Int)
(assert (>= Section_88 0))
(declare-const F89 Int)
(assert (>= F89 0))
(declare-const Section_89 Int)
(assert (>= Section_89 0))
(declare-const F90 Int)
(assert (>= F90 0))
(declare-const Section_90 Int)
(assert (>= Section_90 0))
(declare-const Section_9 Int)
(assert (>= Section_9 0))
(declare-const F91 Int)
(assert (>= F91 0))
(declare-const Section_91 Int)
(assert (>= Section_91 0))
(declare-const F92 Int)
(assert (>= F92 0))
(declare-const Section_92 Int)
(assert (>= Section_92 0))
(declare-const F93 Int)
(assert (>= F93 0))
(declare-const Section_93 Int)
(assert (>= Section_93 0))
(declare-const F94 Int)
(assert (>= F94 0))
(declare-const Section_94 Int)
(assert (>= Section_94 0))
(declare-const F95 Int)
(assert (>= F95 0))
(declare-const Section_95 Int)
(assert (>= Section_95 0))
(declare-const F96 Int)
(assert (>= F96 0))
(declare-const Section_96 Int)
(assert (>= Section_96 0))
(declare-const F97 Int)
(assert (>= F97 0))
(declare-const Section_97 Int)
(assert (>= Section_97 0))
(declare-const F98 Int)
(assert (>= F98 0))
(declare-const Section_98 Int)
(assert (>= Section_98 0))
(declare-const Section_99 Int)
(assert (>= Section_99 0))

(declare-const a1 Int)
(assert (>= a1 0))
(declare-const a2 Int)
(assert (>= a2 0))
(declare-const a3 Int)
(assert (>= a3 0))
(declare-const a4 Int)
(assert (>= a4 0))
(declare-const a5 Int)
(assert (>= a5 0))
(declare-const a6 Int)
(assert (>= a6 0))
(declare-const a7 Int)
(assert (>= a7 0))
(declare-const a8 Int)
(assert (>= a8 0))
(declare-const a9 Int)
(assert (>= a9 0))
(declare-const a10 Int)
(assert (>= a10 0))
(declare-const a11 Int)
(assert (>= a11 0))
(declare-const a12 Int)
(assert (>= a12 0))
(declare-const a13 Int)
(assert (>= a13 0))
(declare-const a14 Int)
(assert (>= a14 0))
(declare-const a15 Int)
(assert (>= a15 0))
(declare-const a16 Int)
(assert (>= a16 0))
(declare-const a17 Int)
(assert (>= a17 0))
(declare-const a18 Int)
(assert (>= a18 0))
(declare-const a19 Int)
(assert (>= a19 0))
(declare-const a20 Int)
(assert (>= a20 0))
(declare-const a21 Int)
(assert (>= a21 0))
(declare-const a22 Int)
(assert (>= a22 0))
(declare-const a23 Int)
(assert (>= a23 0))
(declare-const a24 Int)
(assert (>= a24 0))
(declare-const a25 Int)
(assert (>= a25 0))
(declare-const a26 Int)
(assert (>= a26 0))
(declare-const a27 Int)
(assert (>= a27 0))
(declare-const a28 Int)
(assert (>= a28 0))
(declare-const a29 Int)
(assert (>= a29 0))
(declare-const a30 Int)
(assert (>= a30 0))
(declare-const a31 Int)
(assert (>= a31 0))
(declare-const a32 Int)
(assert (>= a32 0))
(declare-const a33 Int)
(assert (>= a33 0))
(declare-const a34 Int)
(assert (>= a34 0))
(declare-const a35 Int)
(assert (>= a35 0))
(declare-const a36 Int)
(assert (>= a36 0))
(declare-const a37 Int)
(assert (>= a37 0))
(declare-const a38 Int)
(assert (>= a38 0))
(declare-const a39 Int)
(assert (>= a39 0))
(declare-const a40 Int)
(assert (>= a40 0))
(declare-const a41 Int)
(assert (>= a41 0))
(declare-const a42 Int)
(assert (>= a42 0))
(declare-const a43 Int)
(assert (>= a43 0))
(declare-const a44 Int)
(assert (>= a44 0))
(declare-const a45 Int)
(assert (>= a45 0))
(declare-const a46 Int)
(assert (>= a46 0))
(declare-const a47 Int)
(assert (>= a47 0))
(declare-const a48 Int)
(assert (>= a48 0))
(declare-const a49 Int)
(assert (>= a49 0))
(declare-const a50 Int)
(assert (>= a50 0))
(declare-const a51 Int)
(assert (>= a51 0))
(declare-const a52 Int)
(assert (>= a52 0))
(declare-const a53 Int)
(assert (>= a53 0))
(declare-const a54 Int)
(assert (>= a54 0))
(declare-const a55 Int)
(assert (>= a55 0))
(declare-const a56 Int)
(assert (>= a56 0))
(declare-const a57 Int)
(assert (>= a57 0))
(declare-const a58 Int)
(assert (>= a58 0))
(declare-const a59 Int)
(assert (>= a59 0))
(declare-const a60 Int)
(assert (>= a60 0))
(declare-const a61 Int)
(assert (>= a61 0))
(declare-const a62 Int)
(assert (>= a62 0))
(declare-const a63 Int)
(assert (>= a63 0))
(declare-const a64 Int)
(assert (>= a64 0))
(declare-const a65 Int)
(assert (>= a65 0))
(declare-const a66 Int)
(assert (>= a66 0))
(declare-const a67 Int)
(assert (>= a67 0))
(declare-const a68 Int)
(assert (>= a68 0))
(declare-const a69 Int)
(assert (>= a69 0))
(declare-const a70 Int)
(assert (>= a70 0))
(declare-const a71 Int)
(assert (>= a71 0))
(declare-const a72 Int)
(assert (>= a72 0))
(declare-const a73 Int)
(assert (>= a73 0))
(declare-const a74 Int)
(assert (>= a74 0))
(declare-const a75 Int)
(assert (>= a75 0))
(declare-const a76 Int)
(assert (>= a76 0))
(declare-const a77 Int)
(assert (>= a77 0))
(declare-const a78 Int)
(assert (>= a78 0))
(declare-const a79 Int)
(assert (>= a79 0))
(declare-const a80 Int)
(assert (>= a80 0))
(declare-const a81 Int)
(assert (>= a81 0))
(declare-const a82 Int)
(assert (>= a82 0))
(declare-const a83 Int)
(assert (>= a83 0))
(declare-const a84 Int)
(assert (>= a84 0))
(declare-const a85 Int)
(assert (>= a85 0))
(declare-const a86 Int)
(assert (>= a86 0))
(declare-const a87 Int)
(assert (>= a87 0))
(declare-const a88 Int)
(assert (>= a88 0))
(declare-const a89 Int)
(assert (>= a89 0))
(declare-const a90 Int)
(assert (>= a90 0))
(declare-const a91 Int)
(assert (>= a91 0))
(declare-const a92 Int)
(assert (>= a92 0))
(declare-const a93 Int)
(assert (>= a93 0))
(declare-const a94 Int)
(assert (>= a94 0))
(declare-const a95 Int)
(assert (>= a95 0))
(declare-const a96 Int)
(assert (>= a96 0))
(declare-const a97 Int)
(assert (>= a97 0))
(declare-const a98 Int)
(assert (>= a98 0))
(declare-const a99 Int)
(assert (>= a99 0))
(declare-const a100 Int)
(assert (>= a100 0))
(declare-const a101 Int)
(assert (>= a101 0))
(declare-const a102 Int)
(assert (>= a102 0))
(declare-const a103 Int)
(assert (>= a103 0))
(declare-const a104 Int)
(assert (>= a104 0))
(declare-const a105 Int)
(assert (>= a105 0))
(declare-const a106 Int)
(assert (>= a106 0))
(declare-const a107 Int)
(assert (>= a107 0))
(declare-const a108 Int)
(assert (>= a108 0))
(declare-const a109 Int)
(assert (>= a109 0))
(declare-const a110 Int)
(assert (>= a110 0))
(declare-const a111 Int)
(assert (>= a111 0))
(declare-const a112 Int)
(assert (>= a112 0))
(declare-const a113 Int)
(assert (>= a113 0))
(declare-const a114 Int)
(assert (>= a114 0))
(declare-const a115 Int)
(assert (>= a115 0))
(declare-const a116 Int)
(assert (>= a116 0))
(declare-const a117 Int)
(assert (>= a117 0))
(declare-const a118 Int)
(assert (>= a118 0))
(declare-const a119 Int)
(assert (>= a119 0))
(declare-const a120 Int)
(assert (>= a120 0))
(declare-const a121 Int)
(assert (>= a121 0))
(declare-const a122 Int)
(assert (>= a122 0))
(declare-const a123 Int)
(assert (>= a123 0))
(declare-const a124 Int)
(assert (>= a124 0))
(declare-const a125 Int)
(assert (>= a125 0))
(declare-const a126 Int)
(assert (>= a126 0))
(declare-const a127 Int)
(assert (>= a127 0))
(declare-const a128 Int)
(assert (>= a128 0))

(assert (= F191 (+ F190 F192 Section_1 Section_190)))
(assert (= F2 (+ F1 F3 Section_1 Section_4)))
(assert (= a1 (+ F192 Section_1)))
(assert (= a2 (+ Section_2 Section_1)))
(assert (= a3 (+ F189 Section_190)))
(assert (= a4 (+ Section_191 Section_190)))
(assert (= F188 (+ F187 a3 Section_187)))
(assert (= F11 (+ F10 F12 Section_10 Section_13)))
(assert (= F8 (+ F7 F9 Section_10 Section_7)))
(assert (= F101 (+ F100 F102 Section_100 Section_103)))
(assert (= F98 (+ F97 F99 Section_100 Section_97)))
(assert (= a5 (+ F9 Section_10)))
(assert (= a6 (+ Section_11 Section_10)))
(assert (= a7 (+ F99 Section_100)))
(assert (= a8 (+ Section_101 Section_100)))
(assert (= a9 (+ F186 Section_187)))
(assert (= a10 (+ Section_188 Section_187)))
(assert (= a11 (+ F6 Section_7)))
(assert (= a12 (+ Section_8 Section_7)))
(assert (= a13 (+ F96 Section_97)))
(assert (= a14 (+ Section_98 Section_97)))
(assert (= F185 (+ F184 a9 Section_184)))
(assert (= F5 (+ F4 a11 Section_4)))
(assert (= F95 (+ F94 a13 Section_94)))
(assert (= a15 (+ F183 Section_184)))
(assert (= a16 (+ Section_185 Section_184)))
(assert (= a17 (+ F3 Section_4)))
(assert (= a18 (+ Section_5 Section_4)))
(assert (= a19 (+ F93 Section_94)))
(assert (= a20 (+ Section_95 Section_94)))
(assert (= F182 (+ F181 a15 Section_181)))
(assert (= F92 (+ F91 a19 Section_91)))
(assert (= a21 (+ F180 Section_181)))
(assert (= a22 (+ Section_182 Section_181)))
(assert (= a23 (+ F90 Section_91)))
(assert (= a24 (+ Section_92 Section_91)))
(assert (= F179 (+ F178 a21 Section_178)))
(assert (= F89 (+ F88 a23 Section_88)))
(assert (= a25 (+ F177 Section_178)))
(assert (= a26 (+ Section_179 Section_178)))
(assert (= a27 (+ F87 Section_88)))
(assert (= a28 (+ Section_89 Section_88)))
(assert (= F176 (+ F175 a25 Section_175)))
(assert (= F86 (+ F85 a27 Section_85)))
(assert (= a29 (+ F174 Section_175)))
(assert (= a30 (+ Section_176 Section_175)))
(assert (= a31 (+ F84 Section_85)))
(assert (= a32 (+ Section_86 Section_85)))
(assert (= F173 (+ F172 a29 Section_172)))
(assert (= F83 (+ F82 a31 Section_82)))
(assert (= a33 (+ F171 Section_172)))
(assert (= a34 (+ Section_173 Section_172)))
(assert (= a35 (+ F81 Section_82)))
(assert (= a36 (+ Section_83 Section_82)))
(assert (= F170 (+ F169 a33 Section_169)))
(assert (= F80 (+ F79 a35 Section_79)))
(assert (= a37 (+ F168 Section_169)))
(assert (= a38 (+ Section_170 Section_169)))
(assert (= a39 (+ F78 Section_79)))
(assert (= a40 (+ Section_80 Section_79)))
(assert (= F167 (+ F166 a37 Section_166)))
(assert (= F77 (+ F76 a39 Section_76)))
(assert (= a41 (+ F165 Section_166)))
(assert (= a42 (+ Section_167 Section_166)))
(assert (= a43 (+ F75 Section_76)))
(assert (= a44 (+ Section_77 Section_76)))
(assert (= F164 (+ F163 a41 Section_163)))
(assert (= F74 (+ F73 a43 Section_73)))
(assert (= a45 (+ F162 Section_163)))
(assert (= a46 (+ Section_164 Section_163)))
(assert (= a47 (+ F72 Section_73)))
(assert (= a48 (+ Section_74 Section_73)))
(assert (= F161 (+ F160 a45 Section_160)))
(assert (= F71 (+ F70 a47 Section_70)))
(assert (= a49 (+ F159 Section_160)))
(assert (= a50 (+ Section_161 Section_160)))
(assert (= a51 (+ F69 Section_70)))
(assert (= a52 (+ Section_71 Section_70)))
(assert (= F158 (+ F157 a49 Section_157)))
(assert (= F68 (+ F67 a51 Section_67)))
(assert (= a53 (+ F156 Section_157)))
(assert (= a54 (+ Section_158 Section_157)))
(assert (= a55 (+ F66 Section_67)))
(assert (= a56 (+ Section_68 Section_67)))
(assert (= F155 (+ F154 a53 Section_154)))
(assert (= F65 (+ F64 a55 Section_64)))
(assert (= a57 (+ F153 Section_154)))
(assert (= a58 (+ Section_155 Section_154)))
(assert (= a59 (+ F63 Section_64)))
(assert (= a60 (+ Section_65 Section_64)))
(assert (= F152 (+ F151 a57 Section_151)))
(assert (= F62 (+ F61 a59 Section_61)))
(assert (= a61 (+ F150 Section_151)))
(assert (= a62 (+ Section_152 Section_151)))
(assert (= a63 (+ F60 Section_61)))
(assert (= a64 (+ Section_62 Section_61)))
(assert (= F149 (+ F148 a61 Section_148)))
(assert (= F59 (+ F58 a63 Section_58)))
(assert (= a65 (+ F147 Section_148)))
(assert (= a66 (+ Section_149 Section_148)))
(assert (= a67 (+ F57 Section_58)))
(assert (= a68 (+ Section_59 Section_58)))
(assert (= F146 (+ F145 a65 Section_145)))
(assert (= F56 (+ F55 a67 Section_55)))
(assert (= a69 (+ F144 Section_145)))
(assert (= a70 (+ Section_146 Section_145)))
(assert (= a71 (+ F54 Section_55)))
(assert (= a72 (+ Section_56 Section_55)))
(assert (= F143 (+ F142 a69 Section_142)))
(assert (= F53 (+ F52 a71 Section_52)))
(assert (= a73 (+ F141 Section_142)))
(assert (= a74 (+ Section_143 Section_142)))
(assert (= a75 (+ F51 Section_52)))
(assert (= a76 (+ Section_53 Section_52)))
(assert (= F140 (+ F139 a73 Section_139)))
(assert (= F50 (+ F49 a75 Section_49)))
(assert (= a77 (+ F138 Section_139)))
(assert (= a78 (+ Section_140 Section_139)))
(assert (= a79 (+ F48 Section_49)))
(assert (= a80 (+ Section_50 Section_49)))
(assert (= F137 (+ F136 a77 Section_136)))
(assert (= F47 (+ F46 a79 Section_46)))
(assert (= a81 (+ F135 Section_136)))
(assert (= a82 (+ Section_137 Section_136)))
(assert (= a83 (+ F45 Section_46)))
(assert (= a84 (+ Section_47 Section_46)))
(assert (= F134 (+ F133 a81 Section_133)))
(assert (= F44 (+ F43 a83 Section_43)))
(assert (= a85 (+ F132 Section_133)))
(assert (= a86 (+ Section_134 Section_133)))
(assert (= a87 (+ F42 Section_43)))
(assert (= a88 (+ Section_44 Section_43)))
(assert (= F131 (+ F130 a85 Section_130)))
(assert (= F41 (+ F40 a87 Section_40)))
(assert (= a89 (+ F129 Section_130)))
(assert (= a90 (+ Section_131 Section_130)))
(assert (= a91 (+ F39 Section_40)))
(assert (= a92 (+ Section_41 Section_40)))
(assert (= F128 (+ F127 a89 Section_127)))
(assert (= F38 (+ F37 a91 Section_37)))
(assert (= a93 (+ F126 Section_127)))
(assert (= a94 (+ Section_128 Section_127)))
(assert (= a95 (+ F36 Section_37)))
(assert (= a96 (+ Section_38 Section_37)))
(assert (= F125 (+ F124 a93 Section_124)))
(assert (= F35 (+ F34 a95 Section_34)))
(assert (= a97 (+ F123 Section_124)))
(assert (= a98 (+ Section_125 Section_124)))
(assert (= a99 (+ F33 Section_34)))
(assert (= a100 (+ Section_35 Section_34)))
(assert (= F122 (+ F121 a97 Section_121)))
(assert (= F32 (+ F31 a99 Section_31)))
(assert (= a101 (+ F120 Section_121)))
(assert (= a102 (+ Section_122 Section_121)))
(assert (= a103 (+ F30 Section_31)))
(assert (= a104 (+ Section_32 Section_31)))
(assert (= F119 (+ F118 a101 Section_118)))
(assert (= F29 (+ F28 a103 Section_28)))
(assert (= a105 (+ F117 Section_118)))
(assert (= a106 (+ Section_119 Section_118)))
(assert (= a107 (+ F27 Section_28)))
(assert (= a108 (+ Section_29 Section_28)))
(assert (= F116 (+ F115 a105 Section_115)))
(assert (= F26 (+ F25 a107 Section_25)))
(assert (= a109 (+ F114 Section_115)))
(assert (= a110 (+ Section_116 Section_115)))
(assert (= a111 (+ F24 Section_25)))
(assert (= a112 (+ Section_26 Section_25)))
(assert (= F113 (+ F112 a109 Section_112)))
(assert (= F23 (+ F22 a111 Section_22)))
(assert (= a113 (+ F111 Section_112)))
(assert (= a114 (+ Section_113 Section_112)))
(assert (= a115 (+ F21 Section_22)))
(assert (= a116 (+ Section_23 Section_22)))
(assert (= F110 (+ F109 a113 Section_109)))
(assert (= F20 (+ F19 a115 Section_19)))
(assert (= a117 (+ F108 Section_109)))
(assert (= a118 (+ Section_110 Section_109)))
(assert (= a119 (+ F18 Section_19)))
(assert (= a120 (+ Section_20 Section_19)))
(assert (= F107 (+ F106 a117 Section_106)))
(assert (= F17 (+ F16 a119 Section_16)))
(assert (= a121 (+ F105 Section_106)))
(assert (= a122 (+ Section_107 Section_106)))
(assert (= a123 (+ F15 Section_16)))
(assert (= a124 (+ Section_17 Section_16)))
(assert (= F104 (+ F103 a121 Section_103)))
(assert (= F14 (+ F13 a123 Section_13)))
(assert (= a125 (+ F102 Section_103)))
(assert (= a126 (+ Section_104 Section_103)))
(assert (= a127 (+ F12 Section_13)))
(assert (= a128 (+ Section_14 Section_13)))
(assert (= (+ F1 F10 F100 a125 F103 a121 F106 a117 F109 a113 F112 a109 F115 a105 F118 a127 a101 F121 a97 F124 a93 F127 a89 F13 F130 a85 F133 a81 F136 a77 F139 a73 F142 a69 F145 a65 F148 a123 a61 F151 a57 F154 a53 F157 a49 F16 F160 a45 F163 a41 F166 a37 F169 a33 F172 a29 F175 a25 F178 a119 a21 F181 a15 F184 a9 F187 a3 F19 F190 a1 a115 F22 a111 F25 a107 F28 a17 a103 F31 a99 F34 a95 F37 a91 F4 F40 a87 F43 a83 F46 a79 F49 a75 F52 a71 F55 a67 F58 a11 a63 F61 a59 F64 a55 F67 a51 F7 F70 a47 F73 a43 F76 a39 F79 a35 F82 a31 F85 a27 F88 a5 a23 F91 a19 F94 a13 F97 a7) 64))
(assert (= (+ F100 a8) 1))
(assert (= (+ a125 Section_102) 1))
(assert (= (+ F103 a126) 1))
(assert (= (+ a121 Section_105) 1))
(assert (= (+ F106 a122) 1))
(assert (= (+ a117 Section_108) 1))
(assert (= (+ F10 a6) 1))
(assert (= (+ F109 a118) 1))
(assert (= (+ a113 Section_111) 1))
(assert (= (+ F112 a114) 1))
(assert (= (+ a109 Section_114) 1))
(assert (= (+ F115 a110) 1))
(assert (= (+ a105 Section_117) 1))
(assert (= (+ F118 a106) 1))
(assert (= (+ a127 Section_12) 1))
(assert (= (+ a101 Section_120) 1))
(assert (= (+ F121 a102) 1))
(assert (= (+ a97 Section_123) 1))
(assert (= (+ F124 a98) 1))
(assert (= (+ a93 Section_126) 1))
(assert (= (+ F127 a94) 1))
(assert (= (+ a89 Section_129) 1))
(assert (= (+ F130 a90) 1))
(assert (= (+ a85 Section_132) 1))
(assert (= (+ F133 a86) 1))
(assert (= (+ a81 Section_135) 1))
(assert (= (+ F136 a82) 1))
(assert (= (+ a77 Section_138) 1))
(assert (= (+ F13 a128) 1))
(assert (= (+ F139 a78) 1))
(assert (= (+ a73 Section_141) 1))
(assert (= (+ F142 a74) 1))
(assert (= (+ a69 Section_144) 1))
(assert (= (+ F145 a70) 1))
(assert (= (+ a65 Section_147) 1))
(assert (= (+ F148 a66) 1))
(assert (= (+ a123 Section_15) 1))
(assert (= (+ a61 Section_150) 1))
(assert (= (+ F151 a62) 1))
(assert (= (+ a57 Section_153) 1))
(assert (= (+ F154 a58) 1))
(assert (= (+ a53 Section_156) 1))
(assert (= (+ F157 a54) 1))
(assert (= (+ a49 Section_159) 1))
(assert (= (+ F160 a50) 1))
(assert (= (+ a45 Section_162) 1))
(assert (= (+ F163 a46) 1))
(assert (= (+ a41 Section_165) 1))
(assert (= (+ F166 a42) 1))
(assert (= (+ a37 Section_168) 1))
(assert (= (+ F16 a124) 1))
(assert (= (+ F169 a38) 1))
(assert (= (+ a33 Section_171) 1))
(assert (= (+ F172 a34) 1))
(assert (= (+ a29 Section_174) 1))
(assert (= (+ F175 a30) 1))
(assert (= (+ a25 Section_177) 1))
(assert (= (+ F178 a26) 1))
(assert (= (+ a119 Section_18) 1))
(assert (= (+ a21 Section_180) 1))
(assert (= (+ F181 a22) 1))
(assert (= (+ a15 Section_183) 1))
(assert (= (+ F184 a16) 1))
(assert (= (+ a9 Section_186) 1))
(assert (= (+ F187 a10) 1))
(assert (= (+ a3 Section_189) 1))
(assert (= (+ F190 a4) 1))
(assert (= (+ a1 Section_192) 1))
(assert (= (+ F1 a2) 1))
(assert (= (+ F19 a120) 1))
(assert (= (+ a115 Section_21) 1))
(assert (= (+ F22 a116) 1))
(assert (= (+ a111 Section_24) 1))
(assert (= (+ F25 a112) 1))
(assert (= (+ a107 Section_27) 1))
(assert (= (+ F28 a108) 1))
(assert (= (+ a17 Section_3) 1))
(assert (= (+ a103 Section_30) 1))
(assert (= (+ F31 a104) 1))
(assert (= (+ a99 Section_33) 1))
(assert (= (+ F34 a100) 1))
(assert (= (+ a95 Section_36) 1))
(assert (= (+ F37 a96) 1))
(assert (= (+ a91 Section_39) 1))
(assert (= (+ F40 a92) 1))
(assert (= (+ a87 Section_42) 1))
(assert (= (+ F43 a88) 1))
(assert (= (+ a83 Section_45) 1))
(assert (= (+ F46 a84) 1))
(assert (= (+ a79 Section_48) 1))
(assert (= (+ F4 a18) 1))
(assert (= (+ F49 a80) 1))
(assert (= (+ a75 Section_51) 1))
(assert (= (+ F52 a76) 1))
(assert (= (+ a71 Section_54) 1))
(assert (= (+ F55 a72) 1))
(assert (= (+ a67 Section_57) 1))
(assert (= (+ F58 a68) 1))
(assert (= (+ a11 Section_6) 1))
(assert (= (+ a63 Section_60) 1))
(assert (= (+ F61 a64) 1))
(assert (= (+ a59 Section_63) 1))
(assert (= (+ F64 a60) 1))
(assert (= (+ a55 Section_66) 1))
(assert (= (+ F67 a56) 1))
(assert (= (+ a51 Section_69) 1))
(assert (= (+ F70 a52) 1))
(assert (= (+ a47 Section_72) 1))
(assert (= (+ F73 a48) 1))
(assert (= (+ a43 Section_75) 1))
(assert (= (+ F76 a44) 1))
(assert (= (+ a39 Section_78) 1))
(assert (= (+ F7 a12) 1))
(assert (= (+ F79 a40) 1))
(assert (= (+ a35 Section_81) 1))
(assert (= (+ F82 a36) 1))
(assert (= (+ a31 Section_84) 1))
(assert (= (+ F85 a32) 1))
(assert (= (+ a27 Section_87) 1))
(assert (= (+ F88 a28) 1))
(assert (= (+ a5 Section_9) 1))
(assert (= (+ a23 Section_90) 1))
(assert (= (+ F91 a24) 1))
(assert (= (+ a19 Section_93) 1))
(assert (= (+ F94 a20) 1))
(assert (= (+ a13 Section_96) 1))
(assert (= (+ F97 a14) 1))
(assert (= (+ a8 Section_102 a126 Section_105 a122 Section_108 a6 a118 Section_111 a114 Section_114 a110 Section_117 a106 Section_12 Section_120 a102 Section_123 a98 Section_126 a94 Section_129 a90 Section_132 a86 Section_135 a82 Section_138 a128 a78 Section_141 a74 Section_144 a70 Section_147 a66 Section_15 Section_150 a62 Section_153 a58 Section_156 a54 Section_159 a50 Section_162 a46 Section_165 a42 Section_168 a124 a38 Section_171 a34 Section_174 a30 Section_177 a26 Section_18 Section_180 a22 Section_183 a16 Section_186 a10 Section_189 a4 Section_192 a2 a120 Section_21 a116 Section_24 a112 Section_27 a108 Section_3 Section_30 a104 Section_33 a100 Section_36 a96 Section_39 a92 Section_42 a88 Section_45 a84 Section_48 a18 a80 Section_51 a76 Section_54 a72 Section_57 a68 Section_6 Section_60 a64 Section_63 a60 Section_66 a56 Section_69 a52 Section_72 a48 Section_75 a44 Section_78 a12 a40 Section_81 a36 Section_84 a32 Section_87 a28 Section_9 Section_90 a24 Section_93 a20 Section_96 a14 Section_99) 64))
(assert (= (+ a7 Section_99) 1))

(assert (and (>= F168 1)(>= Section_167 1)))

(check-sat)
(exit)
